
 102   30
  10   10   10   10   10   10   10   10   10   10   10   10   10   10   10   10   10   10   10   10   10   10   10   10   10   10   10   10   10   10

   0   0   0   0   0   0   0   0   0   0   0   0   0   0   0   0   0   0   0   0   0   0   0   0   0   0   0   0   0   0   0  24 2 3 4 6 7 8 9 10 11 12 13 14 15 16 18 19 21 23 24 25 27 32 37 38 
   1   0   0   0   0   0   0   0   0   1   0   0   0   2   0   1   0   0   0   3   0   0   1   0   0   0   0   0   0   0   0  14 101 65 59 56 55 54 52 49 47 46 44 29 22 17 
   9   0   0   0   0   2   0   0   0   0   0   0   0   0   0   0   0   0   0   0   0   0   0   0   0   0   3   0   0   0   0   7 67 66 59 51 43 42 5 
  10   3   0   0   0   0   1   0   0   0   0   0   0   3   0   4   0   0   0   0   0   0   0   0   0   1   0   0   0   0   0  15 100 99 97 73 66 65 64 61 56 55 49 47 46 30 29 
   7   0   0   0   1   0   0   0   0   0   0   0   0   0   0   0   0   0   0   0   0   0   5   0   0   0   0   0   0   0   0  13 97 73 72 65 61 56 54 53 52 48 45 41 36 
   7   0   0   0   0   0   4   0   0   0   0   1   0   0   1   0   0   0   0   7   0   0   0   0   0   0   0   0   0   0   0  11 101 70 66 65 61 59 55 52 51 46 20 
   6   0   0   0   5   0   0   0   0   0   2   8   0   0   0  10   0   0   0   0   0   0   0   3   0   0   0   0   0   0   0  16 100 96 92 90 73 70 66 65 64 56 55 51 50 49 48 28 
   1   0   0   0   0   0   0   0   0   0   0   0   0   0   0   0   2   0   0   0   2   0   0   2   0   0   5   0   0   0   0  17 100 96 91 73 71 67 66 65 62 61 59 54 52 50 47 45 33 
   4   0   0   6   0   0   0   2   0   0   0   0   0   0   0   0   2   0   0   0   0   1   0   0   0   0   4   0   0   0   1  12 101 100 98 70 67 65 61 54 52 39 35 30 
   3   0   0   0   0   0   0   7   0   5   0   0   0   0   0   0   5   2   0   5   0   0   8   0   0   0   0   0   0   0   0  11 101 97 96 94 72 70 54 51 49 36 26 
   9   0   0   0   0   0   0   0   0   0   0   0   0   0   0   0   0   4   0   0   0   0   0   0   0   0   0   0   0   0   5  16 100 97 88 87 73 66 65 64 62 61 57 56 54 50 48 35 
  10   0   0   0   0   0   0   0   0   0   0   0   0   5   0   0   0   0   0   0   5   0   3   0   0   0   0   0   0   0   0  12 100 97 95 94 71 66 65 61 55 50 45 29 
   8   0   0   0   6   0   0   0   0   0   0   0   3   0   0   7   0   0   1   0   0   3   0   0   0   0   7   0   0   0   0  15 100 97 96 95 89 73 71 69 66 62 61 54 50 45 34 
   4   0   0   0   0   0   9   0   0   0   0   0   0   0   0   5   7   0   0   0   0   0   0   0   3   0   0   0   0   0   0  17 101 96 95 92 91 88 87 84 72 70 64 63 62 56 52 50 40 
   1   0   0   0   5   0   0   0   0   0   0   0   0   0   0   0   0   0   5   8   0   0   0   0   0   0   0   0   0   0   0  16 100 99 98 97 96 95 92 89 86 70 66 61 58 55 51 48 
   8   0   0   0   0   0   7   6   0   0   0   0   0   4   0   0   0   0   0   0   9   0   0   0   0  10   0   0   0   0   6  11 101 100 99 98 71 70 65 57 55 50 31 
   3   0   0   0   0   0   0   0   0   0   0   0   0   0   0   0   0   0   0   0   8   0   0   5   0   0   0   0   0   0   0  10 100 97 93 86 73 64 63 51 45 30 
   5   5   0   0   0   0   0   0   0   0   0   0   3   8   0   5   0   0   0   0   0   4   0   0   0   0   7   0   0   5   0  17 100 98 97 91 89 88 87 70 69 67 66 63 59 58 55 54 52 
   3   0   0   0   0   0   0   0   3   0   0   7   0   0   0   0   9   0   0   8   0   0   0   0   0   0   0   0   0   0   0  16 101 100 97 96 91 88 84 73 72 70 64 61 57 56 54 49 
  10   5   0   0   0   0   0   0   6   0   0   0   0   0   7   0   2  10   0   0   0   0   0   0   0   6   0   0   0   0   0  12 98 97 96 92 91 71 64 62 58 57 50 47 
   4   8   1   0   0   0  10   0   0   0   0   0   0   0   0   0   0   0   0   0   0   0   0   7   0   7   0   1   0   0   0  21 98 97 96 95 94 92 91 88 86 85 84 83 73 72 69 66 65 64 62 61 60 
   2   0   0   0   0   0   6   0   0   0   0   0   0   0   8   0   0   0   0   0   9   0   0   0   4   0   0   0   1   0   0  14 99 96 92 90 89 86 85 73 68 63 62 58 57 51 
   2   0   0   2   0   0   6   0   4   0   0   0   0   0   0   0   0   0   0   0   0   0   0   0   0   0   0   0   0   7   0  10 86 83 82 71 64 63 62 59 54 51 
   3   0   0   0   0   0   0   0   5   0   0   0   0   0   9   0   0   0   0   0   5   0   0   0   0   0   0   0   0   8   0  19 96 92 90 89 87 86 85 84 83 81 80 79 78 73 70 69 62 60 59 
   3   0   0   0   0   5   0   0   0   0   0   0   0   0   0   0   0   0   0   0   0   0   0   0   0   0   0   0   0   5   0  18 99 98 97 94 90 89 87 86 85 84 83 81 79 68 66 63 62 57 
   1   0   0   0   0   0   0   0   0   0   0   4   3   0   0   0   0   0   0   0   3   0   0   0   0   0   0   0   0   0   0  17 99 95 93 92 91 89 88 87 85 81 76 73 71 69 65 58 57 
   7   7   4   0   0   0   0   0   0   9   0   0   0   0   5   0   8   6   0   0   0   0   0   0   0   0   8   0   0   0   0  16 97 96 91 90 87 86 85 83 81 79 73 72 71 70 64 60 
   3   0   0   0   0   0   0   0   8   0   0   0   0   0   0   0   0   0   0   0   0   0   8   0   0   0   0   0   0   0   0  11 99 97 91 87 83 79 71 68 63 59 52 
   9   0   0  10   0   8   0   0   0   0   0   0   0   0   0   0   0   0   6   0   0   0   0   0   0   5   0   0   0   0   0  12 96 92 90 89 85 83 80 75 70 62 57 51 
   8   0   0   8   8   6   0   0   4   0   0   0   0   0   0   0   0   0   0   0   0   0   0   0   0   3   0   0   0   0   0  14 95 92 90 88 87 85 81 80 72 71 69 62 60 58 
   8   0   0   0   0   0   0   0   0   0   0  10   0   0   6   0   0   0   0   0   7   0   0   0   0   0   0   0   0   0   0  13 95 93 92 91 90 88 87 85 78 72 63 60 58 
   7   0   0   0   0   2   0   0   0   0   0   0   0   0   0   0   0   0   0   0   0   0   0   0   0   0   0   0   0   5   0  15 96 90 88 87 86 85 83 82 80 79 78 76 68 65 56 
  10   0   0   0   0   0   0   0   0   0   0   0   0   0   4   0   8   0   0   0   0   0   0   0   0   0   0   0   0   0   0  14 95 94 90 88 84 83 80 79 78 76 69 64 60 57 
  10   0   0   0   0   0   0   4   0   0   0   0   0   0   0   3   0   0   4   0   0   0   0   0   4   0   0   0   0   0   0  12 90 86 85 84 83 81 80 79 78 60 59 57 
   5   0   0   0   0   6   0   0   0   0   0   0   0   0   0   0   0   5   0   5   6   0   0   0   0   6   7   0   0   0   0  13 95 90 89 86 85 84 83 82 81 79 72 60 59 
   2   0   0   0   0   0   0   0   0   0   0   0   0   0   0   0   0   0   0   0   0   0   0   0   0   0   0   0   0   0   5   9 99 95 90 88 82 79 71 63 50 
   7   0   0   0   0   0   0   0   0   0   5   0   0   0   0   0   0   0   0  10   0   0   0   0   0   0   0   0   0   0   0   7 95 80 72 70 68 57 51 
   6   0   0  10   7   0   0   0   0   0   0   0   0   0   0   0   0   0   0   0   0   0   0   0   0   8   0   0   0   0   0  15 98 97 91 88 86 85 84 81 78 76 74 73 70 69 68 
   1   0   0   0   0   0   5   0   0   0   0   0   0   0   0   0   7   0   0   0   0  10   0   0   0   0   0   0   0   0   0  13 99 96 92 91 89 87 85 84 81 79 68 63 62 
  10   0   0   0   0   0   0   0   0   0   0   0   6   0   5   0   0   0   0   0   0   0   0   0   0   0   0   0   0   0   0  12 100 90 86 85 83 82 80 79 78 77 60 59 
   3   0   0   0   0   0   6   0   0   0   0   0   7   0   0   0   0   0   0   0   0   0   0   0   0   0   6   0   0   7   0  10 91 88 86 84 83 82 70 68 64 55 
   6   0   0   0   9   5   0   0   0   0   0   0  10   0   0   0   0   9   0   0   0   0   0   0   0   0   0   0   0   0   0   7 89 88 87 78 62 58 52 
   2   0   0   0   0   0   0   0   0   0   0   0   0   0   0   0   0   0   8   0   0   0   0   6   0   0   0   0   0   0   0  14 96 92 91 90 88 87 86 83 81 80 79 77 69 62 
   2   0   0   0   0   0   0   0   0   0   9   0   0   0   0  10   0   0   0   0   7   0   0   0  10   0   0  10   0   0   0  12 100 97 96 94 85 84 82 79 74 68 66 61 
   4   0   0   0   0   0   0   0   0   0   0   0   0   0   3   0   0   0   0   0   0   0   8   0   0   0   0   0   0   0   0  11 99 88 87 82 80 78 77 76 74 68 58 
  10   0   0   0   9   0   0   0   0   0   0   0   6   0   0   0   0   0   0   0   0   0   8   0   0   0   0   0   0   0   0   9 98 88 86 81 80 79 72 68 57 
   1   0   0   0   6   0   0   0   8   0   0   0   7   8   0   0   9   0   0   0   0   0   0   0   0   0   0   0   0   4   0  12 95 94 93 90 87 86 84 79 77 76 74 69 
   8   0   0   0   0   0   0   0   0   0   0   0   0   0   0   0   0   0   6   0   0   8   0   0   0   0  10   0   0   0   0   9 94 85 80 79 78 77 76 69 60 
   6   0   6   0   0   4   0   0   0   0   0   0   0   0   8   0   7   0   0   0   0   0   0   0   0   0   6   0   0   0   0   9 87 85 83 81 80 79 78 75 62 
   5   0   0   0   0   0   0   0   0   0   0   0   0   0   4   0   0   4   0   0   0   0   0   0   0   0   0   0   0   0   0   5 86 81 78 76 60 
   3   0   0   0   0   0   0   0   0   6   0   0   0   0   7  10   0   0   7   0   0   0   0   0   7   0   0   6   0   0   8   7 91 88 87 84 81 79 78 
   6   0   7   0   0   0   0   0   0   0   0   0   7   0   0   0   0   0   0   0   0   0   0   0   0   0   0   0   0   9   0   4 86 85 81 57 
   3   0   0   0   0   0   0   0   0   0   0   0   6   0   0   0   0   0   0   0   0   0   0   0   0   0   0   0   0   0   0   6 100 88 84 80 75 74 
   2   0   0   0   0   0   0   8   0   0   0   0   8   0   0   0   8   5   0   0   0   0   0   0   0   0   0   0   0   0   6   4 92 85 80 68 
   8   0   0   0   0   0   0   4   0   0   0   0   7   0   0   7   0  10   0   0   0   0   0   0   0   0   0   0   0   0   0   3 93 78 62 
  10   0   0   3   0   0   0   0   0   0   0   0   0   0   0   0   0   0   0   0   0   0   0   7   0   0   0   0   0   0   0   4 98 89 81 74 
   5   0   9   0   0   0   0   0   0   0   0   0   0   8   0   0   0   0   0   3   0   7   0   6   0   0   0   0   0   0   0   3 82 77 74 
   4   0   0   0   3   0   0   0   7   0   4   0   0   0   0   0   0   0   0   6   0   0   0   0   0   0   0   0   0   0   0   3 84 83 79 
   3   0   0   0   0   7   0   0   0   0   0   0   0   0   0   0   0   0   0   0   0   0   0   0   0   0   0   0   0   0   9   3 94 93 76 
   1   0   0   0   0   0   0   0   0   0   0   0   0   0   9   0   7   0   0  10   0   0   0   0   0   0   0   0   0   0   0   2 74 68 
   2   0   0   0   0   0   0   0   0   0   0   0   0   0   0   9   0   9   0   0   0   0   0   0   0   0   0   0   0   5   0   1 63 
   5   0   0   6   0  10   0   0   4   0   0   0   3   0   0   0   0   0   0   0   0   0   0   0   0   0   0   0   0   0   0   2 76 74 
  10   0   0   0   8   0   0   0   0   0   0   0  10   0   0   0   0   0   0   0   0   0   0  10   6   0   0   0   6   0   0   2 80 77 
   7   6   0   0   0   8   0   9   0   0   0   6   0   3   0   0  10   0   0   0   0   7   0   0   0   0   0   0   0   0   0   2 89 74 
   8   0   0   0   0   9   0   0   0   0   0   0   5   0   0   0   0   0   0   8   3   0   0   0   0   0   0   0   0   0   0   2 77 75 
   8   5   0   0   3   0   5   0   0   0   7   7   8   0   0   0   0   0   0   0   0   0   5   0   0   0   0   0   9   0   0   2 80 78 
   1   0   0   0   0   0   7   0   0   0   7   0   0   0   0   0   0   5   0   0   0   0   0   4   0   0   0   0   0   0   0   2 83 81 
   3   0   0   0   0   0   5   0   0   0   0   0   0   8   8   0   0   0   0   0  10   0   0   0   0   0   0   0   0   0   0   1 75 
   8   0   7   0   0   0   0   0   0   0   0   0   0  10   0   0   0   0   5   0   5   0   0   0   4   0   0   0   4   0   0   1 75 
   4   0   0   0   0   0   0   0   0   0   0   0   0   3   0   0   0   0   0   0  10   0   0   9   7   0   0   0   0   0   0   1 77 
   1   0   0   0   0   0   0   0   0   0   0   6   5   0   0   0   0   0   0   0   0   0   0   0   0   0   0   0   0   0   0   1 78 
   7   0   0   3   0   8   0   0   0   0   0   0   3   0   0   0   0   0   0   0   0   0   7   0   0   0   0   0   0   0   0   1 76 
   9   0   0   0   0   0   0   0   0   0   0   0   0   0   0   0   0   0   0   0   0   0   0   0   0   0   0   0   0   0   5   1 82 
   6   0   0   0   0   0   0   0   0   0  10   0   0   0   0   0   0   5   0   0   0   0   0   0   0   0   0   0   0   0   0   1 102
   5   7   0   0   0   0   0   0  10   0   0   0   0   0   0   0   0   0   5   4   0   0   0   0   0   0   0   0   0   0   0   1 102
   5   5   0   0   0   6   0   6   0   0   5   0   0   0   0   0   0   5   0   0   0   0   0   0   0   0   0   0   0   0   0   1 102
   5   0   6   0   0   0   0   0   0   0   0   0   0   0   0   0   0   0   0   0   0   0   9   0   0   0   0   0   0   4   0   1 102
   7   0   0   0   0   0   5   0   0   0   0   3   7   0   0   0   0   0   0   0   0   0   0   0   0   0   0   0   0   0   8   1 102
   6   5   0   0   0   0   0   0   0   0   0   0   0   0   0   0   0   0   0   0   0   0   8   0   0   0   0   0   4  10   0   1 102
   4   0   0   0   0   0   0   0   0   0   5   0   6   0   0   0   0   0   0   0   5   0   0   7   0   0   0   0   0   0   8   1 102
   2   0   0   0   0   0   6   7   0   0   0   0   0   0   6   0   0   0   0   6   3   0   0   0   0   0   0   0   0   0   0   1 102
   1   0   8   0   0   0   0   0   0   0   0   0   0   0   0   0   0   0   0   0   8   0   0   0   0   0   0   0   0   0   0   1 102
  10   0   0   0   0   0   0   0   0   0   5   0   0   0   0   0   0   0  10   0   0   0   0   0   9   0   0   0   9   0   0   1 102
   2   0   0   0   0   0   0   0   8   0   0   0   0   0   0   0   0   0   0   0   0   0   0   0   0   0   0   0   0   0   0   1 102
   3   0   0   0   0   0   0   0   7   0   5   0   0   0   0   0   6   0   0   0   0   0   0   0   0   0   0   0   0   0   0   1 102
   5   0   0   0   8   5   0   0   0   0   0   0   0   8   0   0   0   0   6   0   0   0   0   0   0   0   0   0   0   0   7   1 102
   4   0   5   0   0   0   0   0   0   0   0   0   0   0   0   0   0   5   0   0   0   0   0   0   0   0   3   0   0   2   0   1 102
   6   0   0   0   0   5   0   0   0   0   0   0   0   0   5   0   0   0   0   4   0   8   0   0   0   0   0   0   0   6   0   1 102
   3   0   0   0   0   0   0   0   0   0   0   0   6   0   0   3   0   0   6   0   0   0   0   0   0   0   0   0   0   0   0   1 102
   1   0   0   0   1   0   9   0   0   0   0   0   0   0   0   0   3   6   5   0   0   0   2   0   0   0   0   0   0   0   0   1 102
   9   0   0   0   0   8   6   0   0   0   0   9   0   0   0   0   0   0   0   0   0   0   0   0   0   0   0   0   9   0   4   1 102
   9   0   0   0   0   0   0   0   0   0   0   0   0   0   0   0   0   0   0   0   8   0   0   0   0   0   0   0   0   6   0   1 102
   6   0   0   0   0   0   0   0   0   0   9   0   0   0   0   0   6   0   0   0   5   0   0   0   0   0   0   7   0   0   0   1 102
   2   0   0   0   0   3   0   0   0   0   8   0   0   6   0   0   0   0  10   0   0   0   0   0   0   0   0   0   0   7   0   1 102
   2   0   0   0   0   7   0   0   0   0   3   0   0   0   0   0   1   0   0   3   0   0   0   0   0   8   0   0   0   0   0   1 102
   3   0   0   0   0   0   0   3   0   0   0   0   0   0   0   0   0   0   0   6   0   0   0   6   6   0   0   0   0   0   0   1 102
   3   0   0   0   0   0   0   0   0   9   0   0   0   0   0   0   0   0   0   0   0   0   0   0   0   0   0   0   0   0   0   1 102
   1   0   7   0   0   0   5   0   0   0   6   0   0   4   7   0   0   0   0   0   0   0   0   0   0   0   0   0   0   0   0   1 102
   1   0   6   0   7   0   0  10   5   6   0   0   0   0   0   4   7   0   0   0   2   0   0   0   0   0   0   0   0   0   0   1 102
   7  10   0   0   0   0   0   0   5   0   0   0   0  10   0   0   0   0   0   0   0   0   0   0   0   0   0   0   0   0   0   1 102
   4   0   0   0  10   0   0   0   0   0   0   5   0   0   0   0   0   0   0   0   0   0   0   0   0   0   0   0   6   0   0   1 102
   0   0   0   0   0   0   0   0   0   0   0   0   0   0   0   0   0   0   0   0   0   0   0   0   0   0   0   0   0   0   0   0 
